c instance by G2
c solution = 11111
c Known solution cost is 195 
p cnf 5 30
w 81 37 53 1 23
4 5 -3 0
3 4 5 0
-1 4 5 0
5 -3 -4 0
1 -3 4 0
3 -5 2 0
-3 4 2 0
5 3 -2 0
-1 3 -5 0
4 -3 -5 0
-1 2 -4 0
3 1 5 0
1 4 -5 0
3 -5 -1 0
-1 -3 4 0
1 -2 -3 0
5 -2 -3 0
-1 -3 5 0
4 -3 2 0
5 -2 -4 0
5 -2 -3 0
2 -4 -5 0
3 5 2 0
5 -1 4 0
5 3 4 0
-1 2 4 0
3 -2 -5 0
3 -2 1 0
3 -2 4 0
-3 5 2 0
